2025 02 25 18 42 51-2025 02 26 06 28 30
2025 02 26 18 43 34-2025 02 27 06 27 27
2025 02 27 18 44 16-2025 02 28 06 26 23
2025 02 28 18 44 58-2025 03 01 06 25 18
2025 03 01 18 45 40-2025 03 02 06 24 13
2025 03 02 18 46 21-2025 03 03 06 23 07
